NAME          
ROWS
 N  OBJ
 L  c3
 L  c4
 L  c5
 L  c6
 L  c7
 G  c1
 G  c2
COLUMNS
    ss[1]     c1        1
    ss[1]     OBJ       1000
    ss[2]     c2        1
    ss[2]     OBJ       1000
    s[1]      c3        1
    s[1]      OBJ       -1000
    s[2]      c4        1
    s[2]      OBJ       -1000
    s[3]      c5        1
    s[3]      OBJ       -1000
    s[4]      c6        1
    s[4]      OBJ       -1000
    s[5]      c7        1
    s[5]      OBJ       -1000
    MARKER    'MARKER'                 'INTORG'
    x[1]      c3        853
    x[1]      c4        265
    x[1]      c5        630
    x[1]      c6        578
    x[1]      c7        543
    x[1]      c1        556
    x[1]      c2        413
    x[1]      OBJ       -126
    x[2]      c3        339
    x[2]      c4        915
    x[2]      c5        569
    x[2]      c6        593
    x[2]      c7        685
    x[2]      c1        125
    x[2]      c2        794
    x[2]      OBJ       -606
    x[3]      c3        861
    x[3]      c4        629
    x[3]      c5        771
    x[3]      c6        760
    x[3]      c7        191
    x[3]      c1        736
    x[3]      c2        494
    x[3]      OBJ       -507
    x[4]      c3        343
    x[4]      c4        656
    x[4]      c5        85
    x[4]      c6        261
    x[4]      c7        539
    x[4]      c1        557
    x[4]      c2        821
    x[4]      OBJ       173
    x[5]      c3        424
    x[5]      c4        640
    x[5]      c5        493
    x[5]      c6        248
    x[5]      c7        84
    x[5]      c1        301
    x[5]      c2        348
    x[5]      OBJ       19
    x[6]      c3        282
    x[6]      c4        721
    x[6]      c5        579
    x[6]      c6        172
    x[6]      c7        844
    x[6]      c1        6
    x[6]      c2        961
    x[6]      OBJ       22
    x[7]      c3        830
    x[7]      c4        921
    x[7]      c5        257
    x[7]      c6        246
    x[7]      c7        570
    x[7]      c1        111
    x[7]      c2        63
    x[7]      OBJ       -480
    x[8]      c3        442
    x[8]      c4        636
    x[8]      c5        859
    x[8]      c6        735
    x[8]      c7        109
    x[8]      c1        16
    x[8]      c2        962
    x[8]      OBJ       -458
    x[9]      c3        222
    x[9]      c4        35
    x[9]      c5        211
    x[9]      c6        70
    x[9]      c7        628
    x[9]      c1        704
    x[9]      c2        799
    x[9]      OBJ       249
    x[10]     c3        447
    x[10]     c4        756
    x[10]     c5        703
    x[10]     c6        378
    x[10]     c7        612
    x[10]     c1        952
    x[10]     c2        242
    x[10]     OBJ       -254
    x[11]     c3        925
    x[11]     c4        46
    x[11]     c5        896
    x[11]     c6        602
    x[11]     c7        408
    x[11]     c1        408
    x[11]     c2        352
    x[11]     OBJ       -477
    x[12]     c3        139
    x[12]     c4        173
    x[12]     c5        179
    x[12]     c6        464
    x[12]     c7        431
    x[12]     c1        492
    x[12]     c2        337
    x[12]     OBJ       -269
    x[13]     c3        524
    x[13]     c4        56
    x[13]     c5        194
    x[13]     c6        582
    x[13]     c7        874
    x[13]     c1        163
    x[13]     c2        111
    x[13]     OBJ       -656
    x[14]     c3        606
    x[14]     c4        460
    x[14]     c5        718
    x[14]     c6        231
    x[14]     c7        483
    x[14]     c1        938
    x[14]     c2        559
    x[14]     OBJ       43
    x[15]     c3        840
    x[15]     c4        93
    x[15]     c5        173
    x[15]     c6        480
    x[15]     c7        30
    x[15]     c1        315
    x[15]     c2        889
    x[15]     OBJ       -128
    x[16]     c3        490
    x[16]     c4        741
    x[16]     c5        325
    x[16]     c6        499
    x[16]     c7        860
    x[16]     c1        949
    x[16]     c2        595
    x[16]     OBJ       -123
    x[17]     c3        39
    x[17]     c4        622
    x[17]     c5        744
    x[17]     c6        537
    x[17]     c7        83
    x[17]     c1        670
    x[17]     c2        914
    x[17]     OBJ       271
    x[18]     c3        741
    x[18]     c4        200
    x[18]     c5        788
    x[18]     c6        769
    x[18]     c7        83
    x[18]     c1        1000
    x[18]     c2        576
    x[18]     OBJ       -163
    x[19]     c3        926
    x[19]     c4        138
    x[19]     c5        481
    x[19]     c6        32
    x[19]     c7        787
    x[19]     c1        457
    x[19]     c2        312
    x[19]     OBJ       -427
    x[20]     c3        518
    x[20]     c4        20
    x[20]     c5        779
    x[20]     c6        256
    x[20]     c7        254
    x[20]     c1        816
    x[20]     c2        323
    x[20]     OBJ       60
    x[21]     c3        843
    x[21]     c4        890
    x[21]     c5        662
    x[21]     c6        360
    x[21]     c7        705
    x[21]     c1        357
    x[21]     c2        153
    x[21]     OBJ       -893
    x[22]     c3        425
    x[22]     c4        26
    x[22]     c5        755
    x[22]     c6        854
    x[22]     c7        155
    x[22]     c1        495
    x[22]     c2        888
    x[22]     OBJ       -190
    x[23]     c3        410
    x[23]     c4        779
    x[23]     c5        866
    x[23]     c6        633
    x[23]     c7        335
    x[23]     c1        916
    x[23]     c2        287
    x[23]     OBJ       -294
    x[24]     c3        788
    x[24]     c4        232
    x[24]     c5        387
    x[24]     c6        512
    x[24]     c7        182
    x[24]     c1        852
    x[24]     c2        627
    x[24]     OBJ       -132
    x[25]     c3        196
    x[25]     c4        858
    x[25]     c5        666
    x[25]     c6        613
    x[25]     c7        375
    x[25]     c1        614
    x[25]     c2        888
    x[25]     OBJ       52
    x[26]     c3        801
    x[26]     c4        242
    x[26]     c5        897
    x[26]     c6        61
    x[26]     c7        511
    x[26]     c1        161
    x[26]     c2        634
    x[26]     OBJ       -313
    x[27]     c3        255
    x[27]     c4        325
    x[27]     c5        462
    x[27]     c6        280
    x[27]     c7        668
    x[27]     c1        60
    x[27]     c2        424
    x[27]     OBJ       -226
    x[28]     c3        202
    x[28]     c4        807
    x[28]     c5        589
    x[28]     c6        490
    x[28]     c7        403
    x[28]     c1        382
    x[28]     c2        365
    x[28]     OBJ       -233
    x[29]     c3        285
    x[29]     c4        971
    x[29]     c5        925
    x[29]     c6        728
    x[29]     c7        696
    x[29]     c1        373
    x[29]     c2        374
    x[29]     OBJ       -366
    x[30]     c3        757
    x[30]     c4        787
    x[30]     c5        921
    x[30]     c6        238
    x[30]     c7        760
    x[30]     c1        570
    x[30]     c2        85
    x[30]     OBJ       -589
    x[31]     c3        864
    x[31]     c4        475
    x[31]     c5        855
    x[31]     c6        494
    x[31]     c7        623
    x[31]     c1        182
    x[31]     c2        650
    x[31]     OBJ       -708
    x[32]     c3        673
    x[32]     c4        500
    x[32]     c5        364
    x[32]     c6        475
    x[32]     c7        684
    x[32]     c1        934
    x[32]     c2        265
    x[32]     OBJ       -250
    x[33]     c3        641
    x[33]     c4        962
    x[33]     c5        372
    x[33]     c6        778
    x[33]     c7        262
    x[33]     c1        129
    x[33]     c2        711
    x[33]     OBJ       -239
    x[34]     c3        212
    x[34]     c4        40
    x[34]     c5        466
    x[34]     c6        681
    x[34]     c7        161
    x[34]     c1        542
    x[34]     c2        204
    x[34]     OBJ       -197
    x[35]     c3        7
    x[35]     c4        437
    x[35]     c5        101
    x[35]     c6        28
    x[35]     c7        165
    x[35]     c1        767
    x[35]     c2        816
    x[35]     OBJ       572
    x[36]     c3        22
    x[36]     c4        923
    x[36]     c5        684
    x[36]     c6        200
    x[36]     c7        878
    x[36]     c1        964
    x[36]     c2        595
    x[36]     OBJ       -115
    x[37]     c3        596
    x[37]     c4        740
    x[37]     c5        87
    x[37]     c6        468
    x[37]     c7        643
    x[37]     c1        896
    x[37]     c2        111
    x[37]     OBJ       42
    x[38]     c3        216
    x[38]     c4        716
    x[38]     c5        394
    x[38]     c6        519
    x[38]     c7        158
    x[38]     c1        350
    x[38]     c2        707
    x[38]     OBJ       -234
    x[39]     c3        761
    x[39]     c4        489
    x[39]     c5        622
    x[39]     c6        640
    x[39]     c7        861
    x[39]     c1        178
    x[39]     c2        774
    x[39]     OBJ       -660
    x[40]     c3        824
    x[40]     c4        285
    x[40]     c5        391
    x[40]     c6        603
    x[40]     c7        796
    x[40]     c1        557
    x[40]     c2        138
    x[40]     OBJ       -634
    x[41]     c3        505
    x[41]     c4        767
    x[41]     c5        932
    x[41]     c6        341
    x[41]     c7        881
    x[41]     c1        975
    x[41]     c2        687
    x[41]     OBJ       -331
    x[42]     c3        83
    x[42]     c4        820
    x[42]     c5        336
    x[42]     c6        146
    x[42]     c7        29
    x[42]     c1        70
    x[42]     c2        131
    x[42]     OBJ       -579
    x[43]     c3        403
    x[43]     c4        173
    x[43]     c5        854
    x[43]     c6        149
    x[43]     c7        402
    x[43]     c1        226
    x[43]     c2        279
    x[43]     OBJ       -181
    x[44]     c3        687
    x[44]     c4        450
    x[44]     c5        943
    x[44]     c6        959
    x[44]     c7        18
    x[44]     c1        356
    x[44]     c2        775
    x[44]     OBJ       -113
    x[45]     c3        210
    x[45]     c4        965
    x[45]     c5        305
    x[45]     c6        934
    x[45]     c7        202
    x[45]     c1        404
    x[45]     c2        191
    x[45]     OBJ       -374
    x[46]     c3        69
    x[46]     c4        813
    x[46]     c5        948
    x[46]     c6        877
    x[46]     c7        665
    x[46]     c1        79
    x[46]     c2        217
    x[46]     OBJ       -676
    x[47]     c3        271
    x[47]     c4        952
    x[47]     c5        895
    x[47]     c6        291
    x[47]     c7        796
    x[47]     c1        833
    x[47]     c2        181
    x[47]     OBJ       -450
    x[48]     c3        177
    x[48]     c4        666
    x[48]     c5        331
    x[48]     c6        980
    x[48]     c7        263
    x[48]     c1        616
    x[48]     c2        750
    x[48]     OBJ       116
    x[49]     c3        49
    x[49]     c4        541
    x[49]     c5        91
    x[49]     c6        166
    x[49]     c7        886
    x[49]     c1        575
    x[49]     c2        890
    x[49]     OBJ       123
    x[50]     c3        564
    x[50]     c4        604
    x[50]     c5        95
    x[50]     c6        851
    x[50]     c7        618
    x[50]     c1        987
    x[50]     c2        776
    x[50]     OBJ       -109
    x[51]     c3        821
    x[51]     c4        531
    x[51]     c5        990
    x[51]     c6        964
    x[51]     c7        571
    x[51]     c1        340
    x[51]     c2        484
    x[51]     OBJ       -681
    x[52]     c3        923
    x[52]     c4        521
    x[52]     c5        874
    x[52]     c6        832
    x[52]     c7        757
    x[52]     c1        794
    x[52]     c2        655
    x[52]     OBJ       -269
    x[53]     c3        842
    x[53]     c4        511
    x[53]     c5        521
    x[53]     c6        644
    x[53]     c7        528
    x[53]     c1        321
    x[53]     c2        662
    x[53]     OBJ       -220
    x[54]     c3        347
    x[54]     c4        906
    x[54]     c5        281
    x[54]     c6        161
    x[54]     c7        39
    x[54]     c1        337
    x[54]     c2        662
    x[54]     OBJ       -145
    x[55]     c3        618
    x[55]     c4        363
    x[55]     c5        987
    x[55]     c6        521
    x[55]     c7        508
    x[55]     c1        580
    x[55]     c2        995
    x[55]     OBJ       132
    x[56]     c3        673
    x[56]     c4        718
    x[56]     c5        177
    x[56]     c6        804
    x[56]     c7        698
    x[56]     c1        920
    x[56]     c2        248
    x[56]     OBJ       -256
    x[57]     c3        596
    x[57]     c4        946
    x[57]     c5        959
    x[57]     c6        375
    x[57]     c7        344
    x[57]     c1        425
    x[57]     c2        718
    x[57]     OBJ       -461
    x[58]     c3        718
    x[58]     c4        388
    x[58]     c5        159
    x[58]     c6        299
    x[58]     c7        471
    x[58]     c1        170
    x[58]     c2        321
    x[58]     OBJ       -383
    x[59]     c3        785
    x[59]     c4        843
    x[59]     c5        647
    x[59]     c6        184
    x[59]     c7        663
    x[59]     c1        955
    x[59]     c2        533
    x[59]     OBJ       52
    x[60]     c3        518
    x[60]     c4        130
    x[60]     c5        245
    x[60]     c6        938
    x[60]     c7        780
    x[60]     c1        581
    x[60]     c2        391
    x[60]     OBJ       -191
    x[61]     c3        907
    x[61]     c4        24
    x[61]     c5        395
    x[61]     c6        183
    x[61]     c7        38
    x[61]     c1        739
    x[61]     c2        81
    x[61]     OBJ       -387
    x[62]     c3        170
    x[62]     c4        740
    x[62]     c5        865
    x[62]     c6        959
    x[62]     c7        546
    x[62]     c1        622
    x[62]     c2        253
    x[62]     OBJ       -359
    x[63]     c3        100
    x[63]     c4        108
    x[63]     c5        267
    x[63]     c6        991
    x[63]     c7        167
    x[63]     c1        473
    x[63]     c2        879
    x[63]     OBJ       1
    x[64]     c3        58
    x[64]     c4        457
    x[64]     c5        231
    x[64]     c6        479
    x[64]     c7        191
    x[64]     c1        789
    x[64]     c2        540
    x[64]     OBJ       13
    x[65]     c3        127
    x[65]     c4        212
    x[65]     c5        586
    x[65]     c6        122
    x[65]     c7        907
    x[65]     c1        946
    x[65]     c2        959
    x[65]     OBJ       266
    x[66]     c3        912
    x[66]     c4        977
    x[66]     c5        532
    x[66]     c6        83
    x[66]     c7        210
    x[66]     c1        499
    x[66]     c2        118
    x[66]     OBJ       -619
    x[67]     c3        344
    x[67]     c4        780
    x[67]     c5        412
    x[67]     c6        357
    x[67]     c7        646
    x[67]     c1        666
    x[67]     c2        989
    x[67]     OBJ       32
    x[68]     c3        575
    x[68]     c4        906
    x[68]     c5        90
    x[68]     c6        276
    x[68]     c7        279
    x[68]     c1        546
    x[68]     c2        781
    x[68]     OBJ       40
    x[69]     c3        538
    x[69]     c4        209
    x[69]     c5        849
    x[69]     c6        142
    x[69]     c7        1000
    x[69]     c1        630
    x[69]     c2        678
    x[69]     OBJ       48
    x[70]     c3        835
    x[70]     c4        190
    x[70]     c5        684
    x[70]     c6        407
    x[70]     c7        993
    x[70]     c1        997
    x[70]     c2        787
    x[70]     OBJ       12
    x[71]     c3        339
    x[71]     c4        191
    x[71]     c5        537
    x[71]     c6        429
    x[71]     c7        467
    x[71]     c1        462
    x[71]     c2        424
    x[71]     OBJ       -446
    x[72]     c3        130
    x[72]     c4        461
    x[72]     c5        245
    x[72]     c6        364
    x[72]     c7        364
    x[72]     c1        750
    x[72]     c2        721
    x[72]     OBJ       389
    x[73]     c3        644
    x[73]     c4        130
    x[73]     c5        227
    x[73]     c6        26
    x[73]     c7        291
    x[73]     c1        841
    x[73]     c2        623
    x[73]     OBJ       296
    x[74]     c3        886
    x[74]     c4        670
    x[74]     c5        551
    x[74]     c6        307
    x[74]     c7        417
    x[74]     c1        795
    x[74]     c2        833
    x[74]     OBJ       -146
    x[75]     c3        335
    x[75]     c4        120
    x[75]     c5        192
    x[75]     c6        538
    x[75]     c7        541
    x[75]     c1        2
    x[75]     c2        986
    x[75]     OBJ       -259
    x[76]     c3        362
    x[76]     c4        265
    x[76]     c5        617
    x[76]     c6        566
    x[76]     c7        607
    x[76]     c1        522
    x[76]     c2        141
    x[76]     OBJ       -396
    x[77]     c3        271
    x[77]     c4        161
    x[77]     c5        189
    x[77]     c6        594
    x[77]     c7        653
    x[77]     c1        778
    x[77]     c2        66
    x[77]     OBJ       -287
    x[78]     c3        319
    x[78]     c4        627
    x[78]     c5        899
    x[78]     c6        71
    x[78]     c7        902
    x[78]     c1        42
    x[78]     c2        983
    x[78]     OBJ       -545
    x[79]     c3        116
    x[79]     c4        878
    x[79]     c5        467
    x[79]     c6        713
    x[79]     c7        820
    x[79]     c1        714
    x[79]     c2        449
    x[79]     OBJ       -413
    x[80]     c3        114
    x[80]     c4        628
    x[80]     c5        481
    x[80]     c6        584
    x[80]     c7        88
    x[80]     c1        645
    x[80]     c2        654
    x[80]     OBJ       258
    x[81]     c3        650
    x[81]     c4        568
    x[81]     c5        954
    x[81]     c6        982
    x[81]     c7        20
    x[81]     c1        855
    x[81]     c2        458
    x[81]     OBJ       -297
    x[82]     c3        801
    x[82]     c4        209
    x[82]     c5        61
    x[82]     c6        836
    x[82]     c7        180
    x[82]     c1        396
    x[82]     c2        675
    x[82]     OBJ       -230
    x[83]     c3        639
    x[83]     c4        871
    x[83]     c5        206
    x[83]     c6        8
    x[83]     c7        788
    x[83]     c1        768
    x[83]     c2        515
    x[83]     OBJ       98
    x[84]     c3        141
    x[84]     c4        159
    x[84]     c5        557
    x[84]     c6        951
    x[84]     c7        461
    x[84]     c1        392
    x[84]     c2        718
    x[84]     OBJ       -262
    x[85]     c3        29
    x[85]     c4        521
    x[85]     c5        839
    x[85]     c6        306
    x[85]     c7        449
    x[85]     c1        141
    x[85]     c2        486
    x[85]     OBJ       -352
    x[86]     c3        173
    x[86]     c4        397
    x[86]     c5        246
    x[86]     c6        949
    x[86]     c7        47
    x[86]     c1        544
    x[86]     c2        881
    x[86]     OBJ       28
    x[87]     c3        421
    x[87]     c4        917
    x[87]     c5        165
    x[87]     c6        386
    x[87]     c7        201
    x[87]     c1        847
    x[87]     c2        726
    x[87]     OBJ       68
    x[88]     c3        486
    x[88]     c4        671
    x[88]     c5        661
    x[88]     c6        672
    x[88]     c7        819
    x[88]     c1        263
    x[88]     c2        386
    x[88]     OBJ       -526
    x[89]     c3        849
    x[89]     c4        742
    x[89]     c5        342
    x[89]     c6        20
    x[89]     c7        481
    x[89]     c1        325
    x[89]     c2        796
    x[89]     OBJ       -389
    x[90]     c3        806
    x[90]     c4        500
    x[90]     c5        966
    x[90]     c6        293
    x[90]     c7        542
    x[90]     c1        227
    x[90]     c2        229
    x[90]     OBJ       -580
    x[91]     c3        717
    x[91]     c4        378
    x[91]     c5        288
    x[91]     c6        672
    x[91]     c7        217
    x[91]     c1        765
    x[91]     c2        398
    x[91]     OBJ       -357
    x[92]     c3        525
    x[92]     c4        796
    x[92]     c5        734
    x[92]     c6        342
    x[92]     c7        501
    x[92]     c1        128
    x[92]     c2        335
    x[92]     OBJ       -604
    x[93]     c3        461
    x[93]     c4        936
    x[93]     c5        739
    x[93]     c6        863
    x[93]     c7        820
    x[93]     c1        10
    x[93]     c2        624
    x[93]     OBJ       -751
    x[94]     c3        231
    x[94]     c4        606
    x[94]     c5        189
    x[94]     c6        239
    x[94]     c7        207
    x[94]     c1        973
    x[94]     c2        283
    x[94]     OBJ       128
    x[95]     c3        328
    x[95]     c4        381
    x[95]     c5        110
    x[95]     c6        551
    x[95]     c7        916
    x[95]     c1        162
    x[95]     c2        182
    x[95]     OBJ       -690
    x[96]     c3        929
    x[96]     c4        918
    x[96]     c5        134
    x[96]     c6        570
    x[96]     c7        653
    x[96]     c1        743
    x[96]     c2        589
    x[96]     OBJ       -418
    x[97]     c3        136
    x[97]     c4        304
    x[97]     c5        209
    x[97]     c6        682
    x[97]     c7        639
    x[97]     c1        208
    x[97]     c2        153
    x[97]     OBJ       -438
    x[98]     c3        429
    x[98]     c4        839
    x[98]     c5        141
    x[98]     c6        888
    x[98]     c7        937
    x[98]     c1        223
    x[98]     c2        945
    x[98]     OBJ       -206
    x[99]     c3        369
    x[99]     c4        418
    x[99]     c5        226
    x[99]     c6        899
    x[99]     c7        828
    x[99]     c1        981
    x[99]     c2        272
    x[99]     OBJ       -81
    x[100]    c3        649
    x[100]    c4        268
    x[100]    c5        439
    x[100]    c6        395
    x[100]    c7        405
    x[100]    c1        143
    x[100]    c2        849
    x[100]    OBJ       -339
RHS
    rhs       c3        36209
    rhs       c4        39711
    rhs       c5        38244
    rhs       c6        36944
    rhs       c7        37107
    rhs       c1        3948
    rhs       c2        4016
RANGES
BOUNDS
 LO bounds    ss[1]     0
 PL bounds    ss[1]
 LO bounds    ss[2]     0
 PL bounds    ss[2]
 MI bounds    s[1]
 UP bounds    s[1]      0
 MI bounds    s[2]
 UP bounds    s[2]      0
 MI bounds    s[3]
 UP bounds    s[3]      0
 MI bounds    s[4]
 UP bounds    s[4]      0
 MI bounds    s[5]
 UP bounds    s[5]      0
 BV bounds    x[1]
 BV bounds    x[2]
 BV bounds    x[3]
 BV bounds    x[4]
 BV bounds    x[5]
 BV bounds    x[6]
 BV bounds    x[7]
 BV bounds    x[8]
 BV bounds    x[9]
 BV bounds    x[10]
 BV bounds    x[11]
 BV bounds    x[12]
 BV bounds    x[13]
 BV bounds    x[14]
 BV bounds    x[15]
 BV bounds    x[16]
 BV bounds    x[17]
 BV bounds    x[18]
 BV bounds    x[19]
 BV bounds    x[20]
 BV bounds    x[21]
 BV bounds    x[22]
 BV bounds    x[23]
 BV bounds    x[24]
 BV bounds    x[25]
 BV bounds    x[26]
 BV bounds    x[27]
 BV bounds    x[28]
 BV bounds    x[29]
 BV bounds    x[30]
 BV bounds    x[31]
 BV bounds    x[32]
 BV bounds    x[33]
 BV bounds    x[34]
 BV bounds    x[35]
 BV bounds    x[36]
 BV bounds    x[37]
 BV bounds    x[38]
 BV bounds    x[39]
 BV bounds    x[40]
 BV bounds    x[41]
 BV bounds    x[42]
 BV bounds    x[43]
 BV bounds    x[44]
 BV bounds    x[45]
 BV bounds    x[46]
 BV bounds    x[47]
 BV bounds    x[48]
 BV bounds    x[49]
 BV bounds    x[50]
 BV bounds    x[51]
 BV bounds    x[52]
 BV bounds    x[53]
 BV bounds    x[54]
 BV bounds    x[55]
 BV bounds    x[56]
 BV bounds    x[57]
 BV bounds    x[58]
 BV bounds    x[59]
 BV bounds    x[60]
 BV bounds    x[61]
 BV bounds    x[62]
 BV bounds    x[63]
 BV bounds    x[64]
 BV bounds    x[65]
 BV bounds    x[66]
 BV bounds    x[67]
 BV bounds    x[68]
 BV bounds    x[69]
 BV bounds    x[70]
 BV bounds    x[71]
 BV bounds    x[72]
 BV bounds    x[73]
 BV bounds    x[74]
 BV bounds    x[75]
 BV bounds    x[76]
 BV bounds    x[77]
 BV bounds    x[78]
 BV bounds    x[79]
 BV bounds    x[80]
 BV bounds    x[81]
 BV bounds    x[82]
 BV bounds    x[83]
 BV bounds    x[84]
 BV bounds    x[85]
 BV bounds    x[86]
 BV bounds    x[87]
 BV bounds    x[88]
 BV bounds    x[89]
 BV bounds    x[90]
 BV bounds    x[91]
 BV bounds    x[92]
 BV bounds    x[93]
 BV bounds    x[94]
 BV bounds    x[95]
 BV bounds    x[96]
 BV bounds    x[97]
 BV bounds    x[98]
 BV bounds    x[99]
 BV bounds    x[100]
ENDATA
